 1.0 1.2 1.4 2.4 2.0 
 1.2 1.1 1.0 1.5 1.0
 1.1 1.1 1.3 2.2 1.1
 1.9 1.7 1.5 1.6 1.7
 4.3 4.6 4.9 5.0 5.2
 25.2 23.3 24.5 21.4 27.6
 29.0 29.2 27.7 28.7 30.7
 79.6 78.2 88.8 65.2 82.5
 148.9 154.7 153.0 136.0 149.4
 674.7 648.0 670.4 658.7 681.1
 7773.1 7530.3 7555.0 7636.6 7652.4
 153037.0 136766.5 143369.2 147558.6 138316.2
 2464414.3 2135660.5 2141413.8 2161871.3 2174260.3